NAME /Users/henri/Research/solvers/instances/idol-instances/robust/collection/cbp_Subramanyam_et_al_2020/CapBud_N15_17/models/uncertain_technology_matrix/
ROWS
 N  OBJ
 L  capacity
 L  c_1985
 L  c_1986
 L  c_1987
 L  c_1988
 L  c_1989
 L  c_1990
 L  c_1991
 L  c_1992
 L  c_1993
 L  c_1994
 L  c_1995
 L  c_1996
 L  c_1997
 L  c_1998
 L  c_1999
COLUMNS
    MARKER    'MARKER'                 'INTORG'
    x_0        OBJ        -8.82645
    x_0        c_1985     1
    x_0        capacity   1.76529
    x_1        OBJ        -2.72493
    x_1        c_1986     1
    x_1        capacity   0.544986
    x_2        OBJ        -0.893204
    x_2        c_1987     1
    x_2        capacity   0.178641
    x_3        OBJ        -8.09579
    x_3        c_1988     1
    x_3        capacity   1.61916
    x_4        OBJ        -3.59298
    x_4        c_1989     1
    x_4        capacity   0.718595
    x_5        OBJ        -7.43612
    x_5        c_1990     1
    x_5        capacity   1.48722
    x_6        OBJ        -1.92384
    x_6        c_1991     1
    x_6        capacity   0.384769
    x_7        OBJ        -2.32864
    x_7        c_1992     1
    x_7        capacity   0.465728
    x_8        OBJ        -3.54066
    x_8        c_1993     1
    x_8        capacity   0.708132
    x_9        OBJ        -7.84657
    x_9        c_1994     1
    x_9        capacity   1.56931
    x_10       OBJ        -9.38356
    x_10       c_1995     1
    x_10       capacity   1.87671
    x_11       OBJ        -7.8721
    x_11       c_1996     1
    x_11       capacity   1.57442
    x_12       OBJ        -0.077661
    x_12       c_1997     1
    x_12       capacity   0.0155322
    x_13       OBJ        -8.08457
    x_13       c_1998     1
    x_13       capacity   1.61691
    x_14       OBJ        -6.36428
    x_14       c_1999     1
    x_14       capacity   1.27286
    y_0        OBJ        -7.06116
    y_0        c_1985     1
    y_0        capacity   1.76529
    y_1        OBJ        -2.17994
    y_1        c_1986     1
    y_1        capacity   0.544986
    y_2        OBJ        -0.714563
    y_2        c_1987     1
    y_2        capacity   0.178641
    y_3        OBJ        -6.47663
    y_3        c_1988     1
    y_3        capacity   1.61916
    y_4        OBJ        -2.87438
    y_4        c_1989     1
    y_4        capacity   0.718595
    y_5        OBJ        -5.9489
    y_5        c_1990     1
    y_5        capacity   1.48722
    y_6        OBJ        -1.53908
    y_6        c_1991     1
    y_6        capacity   0.384769
    y_7        OBJ        -1.86291
    y_7        c_1992     1
    y_7        capacity   0.465728
    y_8        OBJ        -2.83253
    y_8        c_1993     1
    y_8        capacity   0.708132
    y_9        OBJ        -6.27725
    y_9        c_1994     1
    y_9        capacity   1.56931
    y_10       OBJ        -7.50685
    y_10       c_1995     1
    y_10       capacity   1.87671
    y_11       OBJ        -6.29768
    y_11       c_1996     1
    y_11       capacity   1.57442
    y_12       OBJ        -0.0621288
    y_12       c_1997     1
    y_12       capacity   0.0155322
    y_13       OBJ        -6.46765
    y_13       c_1998     1
    y_13       capacity   1.61691
    y_14       OBJ        -5.09143
    y_14       c_1999     1
    y_14       capacity   1.27286
    MARKER    'MARKER'                 'INTEND'
RHS
    RHS       capacity   39.4957
    RHS       c_1985     1
    RHS       c_1986     1
    RHS       c_1987     1
    RHS       c_1988     1
    RHS       c_1989     1
    RHS       c_1990     1
    RHS       c_1991     1
    RHS       c_1992     1
    RHS       c_1993     1
    RHS       c_1994     1
    RHS       c_1995     1
    RHS       c_1996     1
    RHS       c_1997     1
    RHS       c_1998     1
    RHS       c_1999     1
BOUNDS
 LI BND       x_0        0
 UI BND       x_0        1
 LI BND       x_1        0
 UI BND       x_1        1
 LI BND       x_2        0
 UI BND       x_2        1
 LI BND       x_3        0
 UI BND       x_3        1
 LI BND       x_4        0
 UI BND       x_4        1
 LI BND       x_5        0
 UI BND       x_5        1
 LI BND       x_6        0
 UI BND       x_6        1
 LI BND       x_7        0
 UI BND       x_7        1
 LI BND       x_8        0
 UI BND       x_8        1
 LI BND       x_9        0
 UI BND       x_9        1
 LI BND       x_10       0
 UI BND       x_10       1
 LI BND       x_11       0
 UI BND       x_11       1
 LI BND       x_12       0
 UI BND       x_12       1
 LI BND       x_13       0
 UI BND       x_13       1
 LI BND       x_14       0
 UI BND       x_14       1
 LI BND       y_0        0
 UI BND       y_0        1
 LI BND       y_1        0
 UI BND       y_1        1
 LI BND       y_2        0
 UI BND       y_2        1
 LI BND       y_3        0
 UI BND       y_3        1
 LI BND       y_4        0
 UI BND       y_4        1
 LI BND       y_5        0
 UI BND       y_5        1
 LI BND       y_6        0
 UI BND       y_6        1
 LI BND       y_7        0
 UI BND       y_7        1
 LI BND       y_8        0
 UI BND       y_8        1
 LI BND       y_9        0
 UI BND       y_9        1
 LI BND       y_10       0
 UI BND       y_10       1
 LI BND       y_11       0
 UI BND       y_11       1
 LI BND       y_12       0
 UI BND       y_12       1
 LI BND       y_13       0
 UI BND       y_13       1
 LI BND       y_14       0
 UI BND       y_14       1
ENDATA
